problems/GracefulWheelGraphs/GracefulWheelGraphs-models/noch/O2/lingeling/model-n06-solution000001.solution
language Essence 1.3

letting colouring be function(0 --> 0, 1 --> 5, 2 --> 1, 3 --> 9, 4 --> 3, 5 --> 2, 6 --> 12)
letting edgeID be
        function(0 --> 5, 1 --> 4, 2 --> 8, 3 --> 6, 4 --> 1, 5 --> 2, 6 --> 12, 7 --> 7, 8 --> 11, 9 --> 3, 10 --> 9,
                 11 --> 10)
